


*************************************************************

   NEOS Server Version 6.0
   Job#     : 18279516
   Password : RzNlnOLu
   User     : 
   Solver   : milp:Gurobi:AMPL
   Start    : 2026-01-25 06:21:27
   End      : 2026-01-25 06:21:35
   Host     : prod-sub-1.neos-server.org

   Disclaimer:

   This information is provided without any express or
   implied warranty. In particular, there is no warranty
   of any kind concerning the fitness of this
   information for any particular purpose.

   Announcements:
*************************************************************
You are using the solver gurobi_ampl.
Checking ampl.mod for gurobi_options...
Checking ampl.com for gurobi_options...
Executing AMPL.
processing data.
processing commands.
Executing on prod-exec-1.neos-server.org
N = 7


"option presolve 0;" used, but "option presolve 10;" might work better.
7 variables, all nonlinear
0 algebraic constraints
3 logical constraints
1 linear objective; 7 nonzeros.

Gurobi 12.0.3:   tech:threads = 4
  pre:solve = 2
  alg:iisfind = 1
Set parameter LogToConsole to value 1
  tech:outlev = 1

AMPL MP initial flat model has 7 variables (7 integer, 0 binary);
Objectives: 1 linear; 
Constraints:  14 linear;
Logical expressions:  3 alldiff;

AMPL MP final model has 172 variables (24 integer, 147 binary);
Objectives: 1 linear; 
Constraints:  75 linear;


Set parameter InfUnbdInfo to value 1
Gurobi Optimizer version 12.0.3 build v12.0.3rc0 (linux64 - "Rocky Linux 8.10 (Green Obsidian)")

CPU model: Intel(R) Xeon(R) CPU E5-2698 v3 @ 2.30GHz, instruction set [SSE2|AVX|AVX2]
Thread count: 32 physical cores, 64 logical processors, using up to 4 threads

Non-default parameters:
InfUnbdInfo  1
Presolve  2
Threads  4

Optimize a model with 75 rows, 172 columns and 479 nonzeros
Model fingerprint: 0xcd50355b
Variable types: 18 continuous, 154 integer (0 binary)
Coefficient statistics:
  Matrix range     [1e+00, 1e+01]
  Objective range  [0e+00, 0e+00]
  Bounds range     [1e+00, 8e+00]
  RHS range        [1e+00, 7e+00]
Presolve removed 31 rows and 119 columns
Presolve time: 0.00s
Presolved: 44 rows, 53 columns, 266 nonzeros
Variable types: 0 continuous, 53 integer (49 binary)
Root relaxation presolve removed 5 rows and 1 columns
Root relaxation presolved: 39 rows, 52 columns, 231 nonzeros


Root relaxation: objective 0.000000e+00, 28 iterations, 0.00 seconds (0.00 work units)

    Nodes    |    Current Node    |     Objective Bounds      |     Work
 Expl Unexpl |  Obj  Depth IntInf | Incumbent    BestBd   Gap | It/Node Time

H    0     0                       0.0000000    0.00000  0.00%     -    0s
     0     0    0.00000    0   23    0.00000    0.00000  0.00%     -    0s

Explored 1 nodes (28 simplex iterations) in 0.01 seconds (0.00 work units)
Thread count was 4 (of 64 available processors)

Solution count 1: 0 

Optimal solution found (tolerance 1.00e-04)
Best objective 0.000000000000e+00, best bound 0.000000000000e+00, gap 0.0000%
Gurobi 12.0.3: optimal solution; objective 0
28 simplex iterations
1 branching node
Solution
========
 1  4
 2  2
 3  7
 4  5
 5  3
 6  1
 7  6

NEOS Server Home
